c ind 10 101 103 105 107 109 111 113 13 133 0
c ind 15 24 27 38 39 41 43 45 48 5 0
c ind 6 83 85 87 89 9 91 93 95 97 0
c ind 99 0
p cnf 133 386
-1 -2 11 0
-1 2 132 0
-100 -101 13 0
-100 -13 101 0
-102 -103 13 0
-102 -13 103 0
-104 -105 13 0
-104 -13 105 0
-106 -107 13 0
-106 -13 107 0
-108 -109 13 0
-108 -13 109 0
-11 -12 14 0
-11 12 16 0
-110 -111 13 0
-110 -13 111 0
-112 -113 13 0
-112 -13 113 0
-114 -115 127 0
-114 115 132 0
-115 -21 116 0
-115 21 120 0
-116 -29 39 0
-116 29 117 0
-117 -31 118 0
-117 31 120 0
-118 -34 119 0
-118 34 124 0
-119 -47 13 0
-119 47 120 0
-12 -13 9 0
-12 -9 13 0
-120 121 0
-120 55 0
-121 122 0
-121 54 0
-122 123 0
-122 53 0
-123 -13 38 0
-123 -38 13 0
-124 -57 39 0
-124 57 125 0
-125 -62 126 0
-125 62 39 0
-126 -67 39 0
-126 67 13 0
-127 128 0
-127 131 0
-128 129 0
-128 131 0
-129 130 0
-129 131 0
-130 -15 39 0
-130 -39 15 0
-131 -39 39 0
-132 -133 15 0
-132 -15 133 0
-14 -13 15 0
-14 -15 13 0
-16 -17 19 0
-16 17 132 0
-17 18 0
-17 3 0
-18 -13 5 0
-18 -5 13 0
-19 -20 14 0
-19 20 114 0
-2 3 7 0
-20 -21 28 0
-20 21 49 0
-21 22 25 0
-22 -23 0
-23 -24 6 0
-23 -6 24 0
-25 -26 0
-26 -10 27 0
-26 -27 10 0
-28 -29 13 0
-28 29 30 0
-29 -10 13 0
-29 -13 10 0
-3 -4 0
-30 -31 33 0
-30 31 49 0
-31 22 0
-31 32 0
-32 -13 6 0
-32 -6 13 0
-33 -34 46 0
-33 34 56 0
-34 35 0
-34 44 0
-35 36 0
-35 42 0
-36 37 0
-36 40 0
-37 -38 39 0
-37 -39 38 0
-39 0
-4 -5 6 0
-4 -6 5 0
-40 -39 41 0
-40 -41 39 0
-42 -39 43 0
-42 -43 39 0
-44 -39 45 0
-44 -45 39 0
-46 -47 39 0
-46 47 49 0
-47 -13 48 0
-47 -48 13 0
-49 50 0
-49 55 0
-50 51 0
-50 54 0
-51 52 0
-51 53 0
-52 -38 39 0
-52 -39 38 0
-53 -39 41 0
-53 -41 39 0
-54 -39 43 0
-54 -43 39 0
-55 -39 45 0
-55 -45 39 0
-56 -57 39 0
-56 57 61 0
-57 44 0
-57 58 0
-58 42 0
-58 59 0
-59 40 0
-59 60 0
-60 -13 38 0
-60 -38 13 0
-61 -62 66 0
-61 62 13 0
-62 44 0
-62 63 0
-63 42 0
-63 64 0
-64 37 0
-64 65 0
-65 -13 41 0
-65 -41 13 0
-66 -67 13 0
-66 67 39 0
-67 112 0
-67 68 0
-68 110 0
-68 69 0
-69 108 0
-69 70 0
-7 -8 0
-70 106 0
-70 71 0
-71 104 0
-71 72 0
-72 102 0
-72 73 0
-73 100 0
-73 74 0
-74 75 0
-74 98 0
-75 76 0
-75 96 0
-76 77 0
-76 94 0
-77 78 0
-77 92 0
-78 79 0
-78 90 0
-79 80 0
-79 88 0
-8 -10 9 0
-8 -9 10 0
-80 81 0
-80 86 0
-81 82 0
-81 84 0
-82 -13 83 0
-82 -83 13 0
-84 -13 85 0
-84 -85 13 0
-86 -13 87 0
-86 -87 13 0
-88 -13 89 0
-88 -89 13 0
-90 -13 91 0
-90 -91 13 0
-92 -13 93 0
-92 -93 13 0
-94 -13 95 0
-94 -95 13 0
-96 -13 97 0
-96 -97 13 0
-98 -13 99 0
-98 -99 13 0
1 -11 -132 0
1 -2 -11 0
1 0
1 2 -132 0
100 -101 -13 0
100 101 13 0
102 -103 -13 0
102 103 13 0
104 -105 -13 0
104 105 13 0
106 -107 -13 0
106 107 13 0
108 -109 -13 0
108 109 13 0
11 -12 -14 0
11 -14 -16 0
11 12 -16 0
110 -111 -13 0
110 111 13 0
112 -113 -13 0
112 113 13 0
114 -115 -127 0
114 -127 -132 0
114 115 -132 0
115 -116 -120 0
115 -21 -116 0
115 21 -120 0
116 -29 -39 0
116 -39 -117 0
116 29 -117 0
117 -118 -120 0
117 -31 -118 0
117 31 -120 0
118 -119 -124 0
118 -34 -119 0
118 34 -124 0
119 -13 -120 0
119 -47 -13 0
119 47 -120 0
12 -9 -13 0
12 9 13 0
120 -121 -55 0
121 -122 -54 0
122 -123 -53 0
123 -13 -38 0
123 13 38 0
124 -39 -125 0
124 -57 -39 0
124 57 -125 0
125 -126 -39 0
125 -62 -126 0
125 62 -39 0
126 -39 -13 0
126 -67 -39 0
126 67 -13 0
127 -128 -131 0
128 -129 -131 0
129 -130 -131 0
13 0
130 -15 -39 0
130 15 39 0
131 -39 -39 0
131 39 39 0
132 -15 -133 0
132 15 133 0
14 -15 -13 0
14 15 13 0
16 -17 -19 0
16 -19 -132 0
16 17 -132 0
17 -3 -18 0
18 -5 -13 0
18 5 13 0
19 -14 -114 0
19 -20 -14 0
19 20 -114 0
2 -3 0
2 -7 0
20 -21 -28 0
20 -28 -49 0
20 21 -49 0
21 -22 0
21 -25 0
22 23 0
23 -6 -24 0
23 6 24 0
25 26 0
26 -10 -27 0
26 10 27 0
28 -13 -30 0
28 -29 -13 0
28 29 -30 0
29 -10 -13 0
29 10 13 0
3 4 0
30 -31 -33 0
30 -33 -49 0
30 31 -49 0
31 -22 -32 0
32 -6 -13 0
32 6 13 0
33 -34 -46 0
33 -46 -56 0
33 34 -56 0
34 -35 -44 0
35 -36 -42 0
36 -37 -40 0
37 -38 -39 0
37 38 39 0
4 -5 -6 0
4 5 6 0
40 -41 -39 0
40 41 39 0
42 -43 -39 0
42 43 39 0
44 -45 -39 0
44 45 39 0
46 -39 -49 0
46 -47 -39 0
46 47 -49 0
47 -48 -13 0
47 48 13 0
49 -50 -55 0
50 -51 -54 0
51 -52 -53 0
52 -39 -38 0
52 39 38 0
53 -39 -41 0
53 39 41 0
54 -39 -43 0
54 39 43 0
55 -39 -45 0
55 39 45 0
56 -39 -61 0
56 -57 -39 0
56 57 -61 0
57 -58 -44 0
58 -59 -42 0
59 -60 -40 0
60 -38 -13 0
60 38 13 0
61 -62 -66 0
61 -66 -13 0
61 62 -13 0
62 -63 -44 0
63 -64 -42 0
64 -37 -65 0
65 -41 -13 0
65 41 13 0
66 -13 -39 0
66 -67 -13 0
66 67 -39 0
67 -68 -112 0
68 -69 -110 0
69 -70 -108 0
7 8 0
70 -71 -106 0
71 -72 -104 0
72 -73 -102 0
73 -74 -100 0
74 -75 -98 0
75 -76 -96 0
76 -77 -94 0
77 -78 -92 0
78 -79 -90 0
79 -80 -88 0
8 -9 -10 0
8 9 10 0
80 -81 -86 0
81 -82 -84 0
82 -83 -13 0
82 83 13 0
84 -85 -13 0
84 85 13 0
86 -87 -13 0
86 87 13 0
88 -89 -13 0
88 89 13 0
90 -91 -13 0
90 91 13 0
92 -93 -13 0
92 93 13 0
94 -95 -13 0
94 95 13 0
96 -97 -13 0
96 97 13 0
98 -99 -13 0
98 99 13 0
